NAME: ../File/prFile/tspFile/tsp_file39.tsp
COMMENT: TSP file generated by Python
TYPE: TSP
DIMENSION: 30
EDGE_WEIGHT_TYPE: EUC_2D
NODE_COORD_SECTION
1 4 37
2 78 46
3 56 94
4 44 43
5 35 43
6 28 58
7 2 75
8 77 64
9 19 47
10 95 89
11 46 46
12 92 39
13 48 75
14 66 21
15 11 73
16 47 34
17 44 37
18 64 34
19 92 17
20 75 3
21 73 59
22 17 58
23 18 14
24 95 80
25 21 76
26 29 31
27 90 33
28 22 71
29 40 5
30 46 6
EOF
